000 000 000 000 -99 000 000 -99 -99 -99 -99 -99 -99 000 000 -99 -99 -99 -99 000 000 000 -99 000 -99 -99 -99 -99 -99 -99 -99
000 000 000 000 000 000 000 000 -99 -99 -99 -99 -99 000 000 000 -99 -99 -99 000 000 000 000 -99 000 -99 -99 000 -99 -99 -99
-99 000 000 000 000 000 000 000 000 000 -99 -99 -99 -99 000 000 -99 -99 -99 -99 000 000 000 000 000 000 -99 -99 -99 -99 -99
000 000 000 000 000 000 000 000 000 000 -99 -99 -99 -99 -99 000 -99 -99 -99 -99 -99 -99 000 000 000 -99 -99 -99 -99 -99 -99
000 000 000 000 000 000 000 000 000 -99 -99 -99 000 -99 -99 -99 -99 -99 -99 -99 -99 000 000 000 000 000 -99 -99 -99 -99 -99
000 000 000 000 000 000 000 000 000 000 -99 -99 000 000 -99 -99 000 000 -99 -99 000 000 000 000 000 -99 -99 -99 -99 -99 -99
000 000 000 000 000 -99 000 000 -99 -99 -99 -99 000 000 000 000 000 000 -99 -99 000 000 000 000 000 -99 -99 -99 -99 -99 -99
000 000 000 000 000 000 000 -99 000 000 -99 -99 000 -99 000 000 000 000 -99 -99 000 000 -99 000 000 -99 -99 -99 -99 000 000
000 000 000 000 000 000 000 -99 000 000 000 -99 -99 -99 000 000 000 000 -99 000 000 -99 -99 000 000 -99 -99 -99 -99 000 000
000 000 000 000 000 000 000 -99 -99 000 000 000 -99 -99 000 000 000 000 000 000 000 000 -99 -99 000 000 -99 000 000 000 000
000 000 000 000 000 000 000 000 000 000 000 000 000 -99 000 000 -99 000 000 000 000 000 -99 -99 000 -99 -99 000 000 000 000
000 000 000 000 000 000 000 000 000 000 000 000 000 -99 -99 000 -99 000 000 000 000 -99 -99 000 000 -99 -99 000 000 000 000
000 000 000 000 000 000 000 000 000 000 000 000 -99 -99 -99 -99 -99 000 000 000 000 -99 -99 -99 000 000 -99 000 000 000 000
000 000 000 000 000 000 000 000 -99 -99 000 000 -99 -99 -99 000 000 000 000 000 -99 000 -99 -99 000 000 -99 -99 000 -99 -99
000 000 000 000 000 000 000 000 000 -99 -99 -99 -99 -99 -99 000 000 000 000 -99 -99 000 -99 000 000 000 000 001 002 -99 -99
000 000 000 000 000 000 000 000 000 -99 -99 -99 -99 -99 000 000 -99 000 000 -99 -99 000 000 000 000 000 000 001 001 -99 -99
000 000 000 -99 000 000 000 000 000 -99 -99 -99 -99 000 000 000 -99 -99 000 -99 -99 -99 000 000 000 000 000 002 003 000 -99
000 000 000 -99 -99 -99 000 000 000 -99 -99 -99 -99 000 000 000 000 -99 -99 -99 -99 000 000 000 000 000 -99 001 001 000 -99
000 000 000 000 -99 -99 -99 000 000 -99 -99 000 -99 -99 000 000 000 000 -99 -99 000 000 000 000 -99 -99 -99 -99 000 -99 -99
000 000 000 000 -99 -99 000 000 000 -99 000 000 -99 -99 000 -99 000 000 -99 -99 000 000 000 000 -99 -99 -99 -99 000 -99 -99
000 000 000 000 000 000 000 000 000 -99 000 000 -99 000 000 000 000 000 000 -99 000 000 000 -99 -99 -99 -99 -99 -99 -99 -99
000 000 000 000 000 000 000 000 000 -99 -99 -99 -99 000 000 000 000 000 000 -99 000 000 000 -99 -99 -99 -99 -99 -99 -99 -99
000 000 000 000 000 000 000 000 000 -99 -99 -99 -99 000 000 000 000 000 000 -99 000 000 000 -99 -99 -99 -99 -99 -99 -99 -99
000 000 000 000 000 000 000 000 000 -99 -99 -99 000 000 000 000 000 000 000 -99 000 000 009 -99 -99 -99 -99 -99 -99 -99 -99
000 000 000 000 000 000 -99 000 000 -99 -99 -99 -99 000 000 000 000 000 000 000 000 002 031 -99 -99 -99 -99 -99 -99 -99 -99
000 -99 000 000 000 000 -99 000 -99 000 000 -99 -99 000 000 000 000 000 000 000 000 024 -99 -99 -99 -99 -99 -99 -99 -99 000
000 -99 000 000 000 000 000 -99 000 000 000 -99 -99 000 -99 000 000 000 000 000 000 000 009 -99 -99 -99 -99 -99 -99 -99 000
000 000 000 000 000 000 000 000 000 000 000 -99 -99 -99 -99 000 000 000 000 000 000 000 031 -99 -99 -99 -99 -99 -99 -99 000
000 000 000 000 000 000 000 000 000 000 000 -99 -99 000 000 000 000 000 000 000 000 000 211 -99 -99 -99 -99 -99 -99 -99 000
000 000 000 000 000 000 000 000 000 000 000 -99 -99 000 000 000 000 000 000 000 000 000 -99 -99 -99 -99 -99 -99 -99 -99 -99
000 000 000 000 000 000 000 000 000 000 000 -99 -99 000 000 000 000 000 000 000 000 000 -99 -99 -99 -99 -99 -99 -99 -99 -99
000 000 -99 000 000 000 000 000 000 -99 -99 -99 -99 000 000 000 000 000 000 000 000 000 000 000 000 000 -99 -99 -99 -99 -99
000 -99 000 000 000 000 000 000 000 -99 -99 -99 -99 -99 -99 000 000 000 000 -99 -99 000 000 000 000 000 -99 000 000 000 -99
000 000 000 000 000 000 000 000 000 000 -99 -99 -99 -99 000 000 000 000 000 -99 -99 000 000 000 000 000 000 000 000 000 -99
000 000 000 000 000 000 000 000 000 000 -99 -99 -99 -99 000 000 000 000 000 -99 000 000 000 000 000 000 000 000 000 000 000
000 000 000 000 000 -99 -99 000 000 000 -99 -99 -99 -99 000 000 000 000 000 000 000 -99 000 000 000 000 000 000 000 -99 000
000 000 -99 000 000 -99 -99 000 000 000 -99 -99 -99 -99 000 000 000 000 000 -99 000 -99 -99 000 000 000 000 000 000 -99 -99
000 000 000 000 -99 -99 -99 -99 000 -99 -99 -99 -99 -99 000 000 000 000 000 -99 000 000 -99 -99 -99 -99 000 -99 -99 -99 -99
000 000 000 000 -99 -99 -99 -99 -99 -99 -99 -99 000 000 000 000 000 000 -99 -99 000 000 000 000 -99 -99 000 -99 -99 -99 -99
000 -99 000 000 -99 -99 -99 -99 -99 -99 -99 000 000 000 -99 -99 000 000 -99 -99 000 -99 000 000 -99 -99 -99 -99 -99 -99 -99
-99 -99 -99 000 -99 -99 -99 -99 -99 -99 000 000 000 000 000 -99 -99 -99 -99 -99 000 -99 -99 -99 -99 000 000 -99 -99 -99 -99
000 000 -99 -99 -99 -99 000 -99 -99 -99 000 000 000 000 000 000 -99 -99 -99 000 -99 -99 -99 000 000 -99 -99 -99 -99 -99 000
000 -99 -99 -99 -99 000 -99 -99 -99 000 000 000 000 000 000 000 -99 -99 -99 000 -99 -99 -99 000 000 000 -99 -99 -99 -99 000
000 -99 -99 -99 000 000 -99 -99 -99 -99 000 000 000 000 000 000 -99 -99 000 -99 -99 -99 -99 000 000 000 -99 -99 -99 -99 000
000 -99 -99 -99 -99 -99 -99 -99 -99 000 000 -99 -99 -99 000 -99 -99 -99 000 -99 -99 -99 000 000 000 -99 -99 -99 -99 -99 -99
000 -99 -99 -99 -99 -99 -99 -99 -99 000 000 -99 -99 000 000 -99 -99 000 000 000 -99 000 000 000 000 000 -99 -99 -99 -99 -99
-99 -99 -99 -99 -99 -99 -99 -99 -99 -99 -99 -99 -99 000 -99 -99 -99 000 000 000 -99 000 000 000 -99 000 000 -99 000 -99 -99
-99 -99 -99 -99 -99 -99 -99 -99 -99 -99 -99 -99 -99 -99 -99 -99 -99 000 -99 000 000 000 000 000 000 000 -99 000 000 -99 -99
-99 -99 -99 -99 -99 -99 -99 -99 -99 -99 -99 -99 -99 -99 -99 -99 -99 000 000 000 000 000 -99 -99 000 000 -99 000 000 -99 -99
-99 -99 -99 -99 -99 -99 -99 -99 -99 -99 -99 -99 -99 -99 -99 -99 000 000 000 000 000 000 -99 000 000 000 -99 000 -99 -99 -99
-99 -99 -99 -99 -99 -99 -99 -99 -99 -99 -99 -99 -99 -99 -99 -99 000 000 000 000 000 000 -99 000 000 -99 -99 -99 -99 -99 -99
-99 -99 -99 -99 -99 -99 -99 -99 -99 -99 -99 -99 -99 -99 -99 000 000 000 000 000 -99 -99 -99 000 000 -99 -99 -99 -99 -99 -99
-99 -99 -99 -99 -99 -99 -99 -99 -99 -99 -99 -99 -99 -99 -99 000 000 000 000 000 -99 -99 -99 -99 -99 -99 -99 -99 -99 -99 -99
-99 -99 -99 -99 -99 -99 -99 -99 -99 -99 -99 -99 -99 -99 -99 000 000 000 000 -99 -99 -99 -99 -99 -99 -99 -99 -99 -99 -99 -99
-99 -99 -99 -99 -99 -99 -99 -99 -99 -99 -99 -99 -99 -99 -99 -99 -99 000 -99 -99 -99 -99 -99 -99 -99 -99 -99 -99 -99 -99 -99
